instances/p2/p2_4_8-3.txt
{
	"num_strings": 4,
	"alphabet": "ACGT",
	"strings": [
		"CA",
		"GTTA",
		"GCATATT",
		"T"
	],
	"str_length":[2,4,7,1]
}